
Welcome to IBM(R) ILOG(R) CPLEX(R) Interactive Optimizer 22.1.1.0
  with Simplex, Mixed Integer & Barrier Optimizers
5725-A06 5725-A29 5724-Y48 5724-Y49 5724-Y54 5724-Y55 5655-Y21
Copyright IBM Corp. 1988, 2022.  All Rights Reserved.

Type 'help' for a list of available commands.
Type 'help' followed by a command name for more
information on commands.

CPLEX> Selected objective sense:  MINIMIZE
Selected objective  name:  00000000
Selected RHS        name:  RHS1
Selected bound      name:  BOUND
Problem 'ee.mps' read.
Read time = 0.03 sec. (3.17 ticks)
CPLEX> New value for time limit in seconds: 7200
CPLEX> New value for parallel optimization mode: -1
CPLEX> New value for default parallel thread count: 40
CPLEX> New value for mixed integer optimality gap tolerance: 1e-13
CPLEX> Version identifier: 22.1.1.0 | 2022-11-28 | 9160aff4d
CPXPARAM_Threads                                 40
CPXPARAM_Parallel                                -1
CPXPARAM_TimeLimit                               7200
CPXPARAM_MIP_Tolerances_MIPGap                   1e-13
Found incumbent of value 0.000000 after 0.00 sec. (0.31 ticks)
Tried aggregator 2 times.
MIP Presolve eliminated 184 rows and 2745 columns.
MIP Presolve modified 6090 coefficients.
Aggregator did 713 substitutions.
Reduced MIP has 3636 rows, 7840 columns, and 28952 nonzeros.
Reduced MIP has 7840 binaries, 0 generals, 0 SOSs, and 0 indicators.
Presolve time = 0.07 sec. (69.13 ticks)
Probing time = 0.03 sec. (6.05 ticks)
Tried aggregator 1 time.
Detecting symmetries...
Reduced MIP has 3636 rows, 7840 columns, and 28952 nonzeros.
Reduced MIP has 7840 binaries, 0 generals, 0 SOSs, and 0 indicators.
Presolve time = 0.02 sec. (22.09 ticks)
Probing time = 0.02 sec. (5.80 ticks)
Clique table members: 18787.
MIP emphasis: balance optimality and feasibility.
MIP search method: dynamic search.
Parallel mode: opportunistic, using up to 40 threads.
Root relaxation solution time = 0.15 sec. (147.10 ticks)

        Nodes                                         Cuts/
   Node  Left     Objective  IInf  Best Integer    Best Bound    ItCnt     Gap

*     0+    0                            0.0000  -1.54000e+13              --- 
      0     0  -1.53900e+13    82        0.0000  -1.53900e+13     2428     --- 
*     0+    0                      -1.53900e+13  -1.53900e+13             0.00%
      0     0  -1.53900e+13   192  -1.53900e+13      Cuts: 92     2736    0.00%
*     0+    0                      -1.53900e+13  -1.53900e+13             0.00%
      0     0  -1.53900e+13   127  -1.53900e+13      Cuts: 78     4114    0.00%
*     0+    0                      -1.53900e+13  -1.53900e+13             0.00%

Repeating presolve.
Tried aggregator 3 times.
MIP Presolve eliminated 1906 rows and 4529 columns.
MIP Presolve added 160 rows and 0 columns.
MIP Presolve modified 511 coefficients.
Aggregator did 523 substitutions.
Reduced MIP has 1367 rows, 2762 columns, and 9486 nonzeros.
Reduced MIP has 2762 binaries, 0 generals, 0 SOSs, and 0 indicators.
Presolve time = 0.05 sec. (46.89 ticks)
Probing fixed 390 vars, tightened 0 bounds.
Probing time = 0.03 sec. (24.54 ticks)
Tried aggregator 2 times.
MIP Presolve eliminated 516 rows and 644 columns.
Aggregator did 3 substitutions.
Reduced MIP has 848 rows, 2085 columns, and 7097 nonzeros.
Reduced MIP has 2085 binaries, 0 generals, 0 SOSs, and 0 indicators.
Presolve time = 0.01 sec. (11.99 ticks)
Probing time = 0.00 sec. (2.80 ticks)
Tried aggregator 1 time.
Detecting symmetries...
Reduced MIP has 848 rows, 2085 columns, and 7097 nonzeros.
Reduced MIP has 2085 binaries, 0 generals, 0 SOSs, and 0 indicators.
Presolve time = 0.01 sec. (8.21 ticks)
Represolve time = 0.14 sec. (114.87 ticks)
Probing time = 0.00 sec. (2.78 ticks)
Clique table members: 4939.
MIP emphasis: balance optimality and feasibility.
MIP search method: dynamic search.
Parallel mode: opportunistic, using up to 40 threads.
Root relaxation solution time = 0.04 sec. (16.69 ticks)

        Nodes                                         Cuts/
   Node  Left     Objective  IInf  Best Integer    Best Bound    ItCnt     Gap

*     0+    0                      -1.53900e+13  -1.53900e+13             0.00%
      0     0  -1.53900e+13    65  -1.53900e+13  -1.53900e+13     4785    0.00%
      0     0  -1.53900e+13    75  -1.53900e+13      Cuts: 75     5016    0.00%
      0     0  -1.53900e+13    87  -1.53900e+13      Cuts: 58     5181    0.00%
*     0+    0                      -1.53900e+13  -1.53900e+13             0.00%
      0     2  -1.53900e+13    87  -1.53900e+13  -1.53900e+13     5181    0.00%
Elapsed time = 1.63 sec. (1058.01 ticks, tree = 0.02 MB, solutions = 5)

GUB cover cuts applied:  2
Clique cuts applied:  36
Cover cuts applied:  71
Mixed integer rounding cuts applied:  11
Zero-half cuts applied:  4
Lift and project cuts applied:  5
Gomory fractional cuts applied:  12

Root node processing (before b&c):
  Real time             =    1.34 sec. (1057.72 ticks)
Parallel b&c, 40 threads:
  Real time             =    0.57 sec. (24.18 ticks)
  Sync time (average)   =    0.35 sec.
  Wait time (average)   =    0.00 sec.
                          ------------
Total (root+branch&cut) =    1.92 sec. (1081.90 ticks)

Solution pool: 5 solutions saved.

MIP - Integer optimal solution:  Objective = -1.5389998789e+13
Solution time =    1.95 sec.  Iterations = 7199  Nodes = 62
Deterministic time = 1081.93 ticks  (554.60 ticks/sec)

CPLEX> Solution 'p6' written to file 'ee.sol'.
CPLEX> 